VRPTWMS/instances/mip/fuel_F5/Comparison/N4-C_DV100-C_SV25_F5_0_No_1.log

Gurobi 6.0.4 (win64) logging started 06/18/15 17:35:54

Read LP format model from file E:\Eigene Dateien\Downloads\Michi shit\VRPTWMS2\instances\mip\fuel\N4-C_DV100-C_SV25_F5_0_No_1.lp
Reading time = 0.00 seconds
(null): 129 rows, 72 columns, 447 nonzeros
Optimize a model with 129 rows, 72 columns and 447 nonzeros
Model has 64 quadratic constraints
Coefficient statistics:
  Matrix range    [1e+00, 1e+06]
  Objective range [9e+04, 1e+07]
  Bounds range    [1e+00, 1e+06]
  RHS range       [1e+00, 1e+06]
Presolve removed 18 rows and 13 columns
Presolve time: 0.00s
Presolved: 209 rows, 108 columns, 953 nonzeros
Variable types: 49 continuous, 59 integer (41 binary)
Found heuristic solution: objective 2.109680e+07

Root relaxation: objective 1.515496e+07, 35 iterations, 0.00 seconds

    Nodes    |    Current Node    |     Objective Bounds      |     Work
 Expl Unexpl |  Obj  Depth IntInf | Incumbent    BestBd   Gap | It/Node Time

     0     0 1.5155e+07    0   17 2.1097e+07 1.5155e+07  28.2%     -    0s
     0     0 1.7774e+07    0   12 2.1097e+07 1.7774e+07  15.7%     -    0s
H    0     0                    2.106570e+07 1.7774e+07  15.6%     -    0s

Cutting planes:
  Gomory: 2
  Implied bound: 3
  Clique: 8
  GUB cover: 2

Explored 0 nodes (48 simplex iterations) in 0.01 seconds
Thread count was 4 (of 4 available processors)

Optimal solution found (tolerance 1.00e-04)
Best objective 2.106570000000e+07, best bound 2.106570000000e+07, gap 0.0%
k_c1	800000.0
k_c2	730000.0
k_c3	700000.0
k_c4	1000000.0
k_dN	-0.0
o_1	0.0
o_2	0.0
o_3	0.0
o_4	0.0
p_1	0.0
p_2	0.0
p_3	0.0
p_4	0.0
phi_c1	33624.0
phi_c2	19508.0
phi_c3	13527.0
phi_c4	17182.0
phi_d0	50000.0
phi_dN	-0.0
tauD_c1	87250.0
tauD_c2	200000.0
tauD_c3	361475.0
tauD_c4	200000.0
tauD_d0	-0.0
tauD_dN	1000000.0
tauS_c1	0.0
tauS_c2	0.0
tauS_c3	0.0
tauS_c4	0.0
tauS_d0	-0.0
tauS_dN	0.0
x_c1_c2	1.0
x_c2_c3	1.0
x_c3_dN	1.0
x_c4_dN	1.0
x_d0_c1	1.0
x_d0_c4	1.0
